p cnf 100 324
1 2 -3 0
-1 -2 -3 0
1 -2 3 0
-1 2 3 0
6 4 0
6 5 0
-4 -5 -6 0
7 6 0
7 2 0
-6 -2 -7 0
-3 -7 -8 0
3 7 -8 0
-3 7 8 0
3 -7 8 0
11 -10 0
11 4 0
10 -4 -11 0
-9 11 -12 0
9 -11 -12 0
-9 -11 12 0
9 11 12 0
-14 13 0
-14 9 0
-13 -9 14 0
15 14 0
15 4 0
-14 -4 -15 0
-16 12 0
-16 -15 0
-12 15 16 0
-18 17 0
-18 -14 0
-17 14 18 0
-19 18 0
-19 4 0
-18 -4 19 0
-20 -19 0
-20 -13 0
19 13 20 0
22 21 0
22 10 0
-21 -10 -22 0
5 9 -23 0
-5 -9 -23 0
5 -9 23 0
-5 9 23 0
24 22 0
24 -23 0
-22 23 -24 0
-24 25 -26 0
24 -25 -26 0
-24 -25 26 0
24 25 26 0
-26 11 -27 0
26 -11 -27 0
-26 -11 27 0
26 11 27 0
28 -5 0
28 13 0
5 -13 -28 0
27 28 -29 0
-27 -28 -29 0
27 -28 29 0
-27 28 29 0
20 29 -30 0
-20 -29 -30 0
20 -29 30 0
-20 29 30 0
31 32 0
-31 32 0
33 9 0
33 -4 0
-9 4 -33 0
35 33 0
35 34 0
-33 -34 -35 0
36 32 0
36 35 0
-32 -35 -36 0
36 -25 -37 0
-36 25 -37 0
36 25 37 0
-36 -25 37 0
-38 -30 0
-38 37 0
30 -37 38 0
16 -38 -39 0
-16 38 -39 0
16 38 39 0
-16 -38 39 0
-40 8 0
-40 39 0
-8 -39 40 0
41 -21 0
41 -2 0
21 2 -41 0
-42 34 0
-42 41 0
-34 -41 42 0
17 42 -43 0
-17 -42 -43 0
17 -42 43 0
-17 42 43 0
45 -44 0
45 -28 0
44 28 -45 0
-46 -14 0
-46 31 0
14 -31 46 0
-46 -47 -48 0
46 47 -48 0
-46 47 48 0
46 -47 48 0
-19 -48 -49 0
19 48 -49 0
-19 48 49 0
19 -48 49 0
-50 45 0
-50 -49 0
-45 49 50 0
-51 13 0
-51 50 0
-13 -50 51 0
-52 -43 0
-52 -51 0
43 51 52 0
22 -46 -53 0
-22 46 -53 0
22 46 53 0
-22 -46 53 0
-54 53 0
-54 -1 0
-53 1 54 0
54 14 -55 0
-54 -14 -55 0
54 -14 55 0
-54 14 55 0
-56 55 0
-56 45 0
-55 -45 56 0
57 -52 0
57 56 0
52 -56 -57 0
-58 -54 0
-58 -53 0
54 53 58 0
-59 57 0
-59 -58 0
-57 58 59 0
-60 -40 0
-60 -59 0
40 59 60 0
-9 -2 -61 0
9 2 -61 0
-9 2 61 0
9 -2 61 0
62 46 0
62 -47 0
-46 47 -62 0
-17 10 -63 0
17 -10 -63 0
-17 -10 63 0
17 10 63 0
64 -4 0
64 -63 0
4 63 -64 0
-65 -64 0
-65 18 0
64 -18 65 0
-66 -62 0
-66 65 0
62 -65 66 0
-67 -9 0
-67 21 0
9 -21 67 0
68 67 0
68 -67 0
-69 53 0
-69 -68 0
-53 68 69 0
-70 69 0
-70 24 0
-69 -24 70 0
-70 71 -72 0
70 -71 -72 0
-70 -71 72 0
70 71 72 0
73 -5 0
73 -25 0
5 25 -73 0
-72 -73 -74 0
72 73 -74 0
-72 73 74 0
72 -73 74 0
76 -36 0
76 75 0
36 -75 -76 0
-74 76 -77 0
74 -76 -77 0
-74 -76 77 0
74 76 77 0
78 -66 0
78 77 0
66 -77 -78 0
-79 61 0
-79 -78 0
-61 78 79 0
-80 27 0
-80 2 0
-27 -2 80 0
-1 63 -81 0
1 -63 -81 0
-1 -63 81 0
1 63 81 0
-1 81 -82 0
1 -81 -82 0
-1 -81 82 0
1 81 82 0
-83 -21 0
-83 -82 0
21 82 83 0
80 -83 -84 0
-80 83 -84 0
80 83 84 0
-80 -83 84 0
-85 64 0
-85 23 0
-64 -23 85 0
-86 -21 0
-86 -42 0
21 42 86 0
54 -35 -87 0
-54 35 -87 0
54 35 87 0
-54 -35 87 0
4 87 -88 0
-4 -87 -88 0
4 -87 88 0
-4 87 88 0
86 -88 -89 0
-86 88 -89 0
86 88 89 0
-86 -88 89 0
-90 55 0
-90 10 0
-55 -10 90 0
89 90 -91 0
-89 -90 -91 0
89 -90 91 0
-89 90 91 0
75 1 -92 0
-75 -1 -92 0
75 -1 92 0
-75 1 92 0
-93 -82 0
-93 -92 0
82 92 93 0
-94 91 0
-94 -93 0
-91 93 94 0
-95 85 0
-95 94 0
-85 -94 95 0
96 84 0
96 -95 0
-84 95 -96 0
97 -79 0
97 96 0
79 -96 -97 0
60 -97 -98 0
-60 97 -98 0
60 97 98 0
-60 -97 98 0
-81 25 -99 0
81 -25 -99 0
-81 -25 99 0
81 25 99 0
98 99 -100 0
-98 -99 -100 0
98 -99 100 0
-98 99 100 0
77 8 48 -5 -22 52 0
5 65 59 -47 0
-11 -61 -7 26 0
-11 -52 -21 10 17 0
48 4 64 74 -35 27 0
2 39 -53 -54 23 -13 0
28 -52 87 73 0
-87 3 -12 -20 0
-84 80 0
-29 -45 -54 -55 -40 0
-34 -19 20 0
47 -4 0
-66 60 -35 -11 0
22 66 36 -18 -62 0
-62 71 -84 0
93 -5 -29 0
-47 29 0
98 55 69 -21 44 0
1 88 0
-79 76 45 2 -64 -96 0
44 87 -90 -80 -10 -97 0
14 -41 -10 0
90 16 -31 5 63 0
47 33 -80 0
91 -4 0
-49 39 0
-7 -43 -50 -35 -75 -37 0
-9 66 11 3 -92 -32 0
43 7 69 -99 -11 -41 0
87 4 14 65 45 15 0
63 67 -17 0
-16 54 -43 0
89 3 -82 -90 -74 0
-53 3 -91 0
-34 96 92 43 -16 0
3 46 0
43 -97 -48 -12 36 0
34 -99 -80 -75 19 -57 0
10 -42 70 0
25 -82 -48 -100 75 34 0
82 56 -2 58 0
23 28 68 -21 55 91 0
100 0
